&CONTROL
  calculation = 'nscf',
  disk_io = 'low',
  outdir = 'out/',
  prefix = 'mp-8062',
  pseudo_dir = '/usr/scratch4/magr4985/MG/HTDF/pseudo/SG15',
/
&SYSTEM
  celldm(1) = 8.227854194054478,
  degauss = 0.0004593661607577953,
  ecutwfc = 133,
  force_symmorphic = .TRUE.,
  ibrav = 2,
  nbnd = 1200,
  occupations = 'smearing',
  smearing = 'gaussian',
  nat = 2,
  ntyp = 2,
/
&ELECTRONS
  conv_thr = 1d-10,
  diago_full_acc = .TRUE.,
  diago_thr_init = 5d-06,
  diagonalization = 'david',
/
&IONS
/
&CELL
/
ATOMIC_SPECIES
  C  12.0107 C.upf
  Si  28.0855 Si.upf
ATOMIC_POSITIONS crystal
  Si 0.25000002 0.25000010 0.24999994
  C 0.00000000 0.00000000 0.00000000
K_POINTS automatic
  4 4 4 0 0 0

