&CONTROL
  calculation = 'nscf',
  disk_io = 'low',
  outdir = 'out/',
  prefix = 'mp-23155',
  pseudo_dir = '/usr/scratch4/magr4985/MG/HTDF/pseudo/SG15',
/
&SYSTEM
  celldm(1) = 10.134902544375562,
  degauss = 0.0004593661607577953,
  ecutwfc = 116,
  force_symmorphic = .TRUE.,
  ibrav = 2,
  nbnd = 2280,
  occupations = 'smearing',
  smearing = 'gaussian',
  nat = 1,
  ntyp = 1,
/
&ELECTRONS
  conv_thr = 1d-10,
  diago_full_acc = .TRUE.,
  diago_thr_init = 5d-06,
  diagonalization = 'david',
/
&IONS
/
&CELL
/
ATOMIC_SPECIES
  Ar  39.9480 Ar.upf
ATOMIC_POSITIONS crystal
  Ar 0.00000000 0.00000000 0.00000000
K_POINTS automatic
  8 8 8 0 0 0

