&CONTROL
  calculation = 'nscf',
  disk_io = 'low',
  outdir = 'out/',
  prefix = 'BN',
  pseudo_dir = '/usr/scratch4/magr4985/FGWC/FGWC/pseudo/SG15',
/
&SYSTEM
  celldm(1) = 4.715999637752748,
  celldm(3) = 6.811989879869871,
  degauss = 0.0004593661607577953,
  ecutwfc = 62,
  force_symmorphic = .TRUE.,
  ibrav = 4,
  nbnd = 1200,
  occupations = 'smearing',
  smearing = 'gaussian',
  nat = 2,
  ntyp = 2,
/
&ELECTRONS
  conv_thr = 1d-10,
  diago_full_acc = .TRUE.,
  diago_thr_init = 5d-06,
  diagonalization = 'david',
/
&IONS
/
&CELL
/
ATOMIC_SPECIES
  B  10.8110 B.upf
  N  14.0067 N.upf
ATOMIC_POSITIONS crystal
  B 0.33333336 0.66666664 0.00000000
  N 0.66666672 0.33333336 0.00000000
K_POINTS automatic
  2 2 1 0 0 0

