&CONTROL
  calculation = 'scf',
  disk_io = 'medium',
  outdir = 'out/',
  prefix = 'ZrCl2',
  pseudo_dir = '/usr/scratch4/magr4985/FGWC/FGWC/pseudo/SG15',
/
&SYSTEM
  celldm(1) = 6.43895693865147,
  celldm(3) = 6.889043973492538,
  degauss = 0.0018374646430311813,
  ecutwfc = 43,
  force_symmorphic = .TRUE.,
  ibrav = 4,
  nbnd = 26,
  occupations = 'smearing',
  smearing = 'gaussian',
  nat = 3,
  ntyp = 2,
/
&ELECTRONS
  conv_thr = 1d-10,
  diagonalization = 'david',
/
&IONS
/
&CELL
/
ATOMIC_SPECIES
  Cl  35.4530 Cl.upf
  Zr  91.2240 Zr.upf
ATOMIC_POSITIONS crystal
  Zr 0.66666672 0.33333336 0.00000000
  Cl 0.33333336 0.66666664 0.92693085
  Cl 0.33333336 0.66666664 0.07306923
K_POINTS automatic
  20 20 1 0 0 0

