&CONTROL
  calculation = 'scf',
  disk_io = 'medium',
  outdir = 'out/',
  prefix = 'mp-422',
  pseudo_dir = '/usr/scratch4/magr4985/MG/HTDF/pseudo/SG15',
/
&SYSTEM
  celldm(1) = 9.203538714087848,
  degauss = 0.0004593661607577953,
  ecutwfc = 107,
  force_symmorphic = .TRUE.,
  ibrav = 2,
  nbnd = 10,
  occupations = 'smearing',
  smearing = 'gaussian',
  nat = 2,
  ntyp = 2,
/
&ELECTRONS
  conv_thr = 1d-10,
  diagonalization = 'david',
/
&IONS
/
&CELL
/
ATOMIC_SPECIES
  Be  9.0122 Be.upf
  S  32.0650 S.upf
ATOMIC_POSITIONS crystal
  Be 0.00000000 0.00000000 0.00000000
  S 0.74999998 0.75000006 0.74999998
K_POINTS automatic
  12 12 12 0 0 0

