&CONTROL
  calculation = 'nscf',
  disk_io = 'low',
  outdir = 'out/',
  prefix = 'mp-19717',
  pseudo_dir = '/usr/scratch4/magr4985/MG/HTDF/pseudo/SG15',
/
&SYSTEM
  celldm(1) = 12.362197396962815,
  degauss = 0.0004593661607577953,
  ecutwfc = 55,
  force_symmorphic = .TRUE.,
  ibrav = 2,
  nbnd = 1200,
  occupations = 'smearing',
  smearing = 'gaussian',
  nat = 2,
  ntyp = 2,
/
&ELECTRONS
  conv_thr = 1d-10,
  diago_full_acc = .TRUE.,
  diago_thr_init = 5d-06,
  diagonalization = 'david',
/
&IONS
/
&CELL
/
ATOMIC_SPECIES
  Pb  207.2000 Pb.upf
  Te  127.6000 Te.upf
ATOMIC_POSITIONS crystal
  Te 0.00000000 0.00000000 0.00000000
  Pb 0.49999996 0.50000004 0.49999996
K_POINTS automatic
  2 2 2 0 0 0

