&CONTROL
  calculation = 'nscf',
  disk_io = 'low',
  outdir = 'out/',
  prefix = 'ZrCl2',
  pseudo_dir = '/usr/scratch4/magr4985/FGWC/FGWC/pseudo/SG15',
/
&SYSTEM
  celldm(1) = 6.43895693865147,
  celldm(3) = 6.889043973492538,
  degauss = 0.0004593661607577953,
  ecutwfc = 43,
  force_symmorphic = .TRUE.,
  ibrav = 4,
  nbnd = 1200,
  occupations = 'smearing',
  smearing = 'gaussian',
  nat = 3,
  ntyp = 2,
/
&ELECTRONS
  conv_thr = 1d-10,
  diago_full_acc = .TRUE.,
  diago_thr_init = 5d-06,
  diagonalization = 'david',
/
&IONS
/
&CELL
/
ATOMIC_SPECIES
  Cl  35.4530 Cl.upf
  Zr  91.2240 Zr.upf
ATOMIC_POSITIONS crystal
  Zr 0.66666672 0.33333336 0.00000000
  Cl 0.33333336 0.66666664 0.92693085
  Cl 0.33333336 0.66666664 0.07306923
K_POINTS automatic
  8 8 1 0 0 0

