&CONTROL
  calculation = 'scf',
  disk_io = 'low',
  outdir = 'out/',
  prefix = 'WS2',
  pseudo_dir = '/usr/scratch4/magr4985/FGWC/FGWC/pseudo/SG15',
/
&SYSTEM
  celldm(1) = 6.022906486980998,
  celldm(3) = 7.270665061216227,
  degauss = 0.0018374646430311813,
  ecutwfc = 47,
  force_symmorphic = .FALSE.,
  ibrav = 4,
  nbnd = 40,
  occupations = 'smearing',
  smearing = 'gaussian',
  nat = 3,
  ntyp = 2,
/
&ELECTRONS
  conv_thr = 1d-10,
  diagonalization = 'david',
/
&IONS
/
&CELL
/
ATOMIC_SPECIES
  S  32.0650 S.upf
  W  183.8400 W.upf
ATOMIC_POSITIONS crystal
  W 0.33333336 0.66666664 0.50000004
  S 0.66666672 0.33333336 0.56784800
  S 0.66666672 0.33333336 0.43215207
K_POINTS automatic
  20 20 1 0 0 0

