&CONTROL
  calculation = 'nscf',
  disk_io = 'low',
  outdir = 'out/',
  prefix = 'mp-22913',
  pseudo_dir = '/usr/scratch4/magr4985/MG/HTDF/pseudo/SG15',
/
&SYSTEM
  celldm(1) = 7.6264257226847585,
  celldm(3) = 1.3768699047989763,
  degauss = 0.0004593661607577953,
  ecutwfc = 76,
  force_symmorphic = .TRUE.,
  ibrav = 7,
  nbnd = 1200,
  occupations = 'smearing',
  smearing = 'gaussian',
  nat = 2,
  ntyp = 2,
/
&ELECTRONS
  conv_thr = 1d-10,
  diago_full_acc = .TRUE.,
  diago_thr_init = 5d-06,
  diagonalization = 'david',
/
&IONS
/
&CELL
/
ATOMIC_SPECIES
  Br  79.9040 Br.upf
  Cu  63.5460 Cu.upf
ATOMIC_POSITIONS crystal
  Cu 0.49999996 0.75000006 0.25000002
  Br 0.00000000 0.00000000 0.00000000
K_POINTS automatic
  6 6 6 0 0 0

