&CONTROL
  calculation = 'nscf',
  disk_io = 'low',
  outdir = 'out/',
  prefix = 'mp-1960',
  pseudo_dir = '/usr/scratch4/magr4985/MG/HTDF/pseudo/SG15',
/
&SYSTEM
  celldm(1) = 8.794234394298515,
  degauss = 0.0004593661607577953,
  ecutwfc = 133,
  force_symmorphic = .TRUE.,
  ibrav = 2,
  nbnd = 1672,
  occupations = 'smearing',
  smearing = 'gaussian',
  nat = 3,
  ntyp = 2,
/
&ELECTRONS
  conv_thr = 1d-10,
  diago_full_acc = .TRUE.,
  diago_thr_init = 5d-06,
  diagonalization = 'david',
/
&IONS
/
&CELL
/
ATOMIC_SPECIES
  Li  6.9410 Li.upf
  O  15.9994 O.upf
ATOMIC_POSITIONS crystal
  Li 0.25000002 0.25000010 0.24999994
  Li 0.74999998 0.75000013 0.74999998
  O 0.00000000 0.00000000 0.00000000
K_POINTS automatic
  1 1 1 0 0 0

