&CONTROL
  calculation = 'nscf',
  disk_io = 'low',
  outdir = 'out/',
  prefix = 'MoSe2',
  pseudo_dir = '/usr/scratch4/magr4985/FGWC/FGWC/pseudo/SG15',
/
&SYSTEM
  celldm(1) = 6.265942060312885,
  celldm(3) = 7.044662530609981,
  degauss = 0.0004593661607577953,
  ecutwfc = 48,
  force_symmorphic = .TRUE.,
  ibrav = 4,
  nbnd = 1200,
  occupations = 'smearing',
  smearing = 'gaussian',
  nat = 3,
  ntyp = 2,
/
&ELECTRONS
  conv_thr = 1d-10,
  diago_full_acc = .TRUE.,
  diago_thr_init = 5d-06,
  diagonalization = 'paro',
/
&IONS
/
&CELL
/
ATOMIC_SPECIES
  Mo  95.9400 Mo.upf
  Se  78.9600 Se.upf
ATOMIC_POSITIONS crystal
  Mo 0.66666672 0.33333336 0.50000004
  Se 0.00000000 0.00000000 0.57154682
  Se 0.00000000 0.00000000 0.42845325
K_POINTS automatic
  8 8 1 0 0 0

