&CONTROL
  calculation = 'scf'
  max_seconds =   3.4200000000d+03
  outdir = './out/'
  prefix = 'aiida'
  pseudo_dir = './pseudo/'
  verbosity = 'high'
  wf_collect = .true.
/
&SYSTEM
  ecutwfc = 100
  force_symmorphic = .true.
  ibrav = 0
  nat = 3
  nbnd = 40
  ntyp = 2
/
&ELECTRONS
  conv_thr =   1.0000000000d-08
  diago_full_acc = .true.
  diago_thr_init =   5.0000000000d-06
  mixing_beta =   6.0000000000d-01
  mixing_mode = 'plain'
/
ATOMIC_SPECIES
Mo     95.95 Mo.upf
S      32.06 S.upf
ATOMIC_POSITIONS angstrom
Mo           0.0000000000       1.8394177159      11.5773509428 
S            1.5929824701       0.9197088580      10.0140525649 
S            1.5929824701       0.9197088580      13.1406493208 
K_POINTS automatic
6 6 1 0 0 0
CELL_PARAMETERS angstrom
      3.1859649403       0.0000000000       0.0000000000
     -1.5929824701       2.7591265739       0.0000000000
      0.0000000000       0.0000000000      23.1547018857
