&CONTROL
  calculation = 'nscf',
  disk_io = 'low',
  outdir = 'out/',
  prefix = 'mp-22922',
  pseudo_dir = '/usr/scratch4/magr4985/MG/HTDF/pseudo/SG15',
/
&SYSTEM
  celldm(1) = 10.479146645271376,
  degauss = 0.0004593661607577953,
  ecutwfc = 108,
  force_symmorphic = .TRUE.,
  ibrav = 2,
  nbnd = 2040,
  occupations = 'smearing',
  smearing = 'gaussian',
  nat = 2,
  ntyp = 2,
/
&ELECTRONS
  conv_thr = 1d-10,
  diago_full_acc = .TRUE.,
  diago_thr_init = 5d-06,
  diagonalization = 'david',
/
&IONS
/
&CELL
/
ATOMIC_SPECIES
  Ag  107.8682 Ag.upf
  Cl  35.4530 Cl.upf
ATOMIC_POSITIONS crystal
  Ag 0.00000000 0.00000000 0.00000000
  Cl 0.49999996 0.50000004 0.49999996
K_POINTS automatic
  8 8 8 0 0 0

