&CONTROL
  calculation = 'nscf',
  disk_io = 'low',
  outdir = 'out/',
  prefix = 'mp-2172',
  pseudo_dir = '/usr/scratch4/magr4985/MG/HTDF/pseudo/SG15',
/
&SYSTEM
  celldm(1) = 10.725709791247878,
  degauss = 0.0004593661607577953,
  ecutwfc = 60,
  force_symmorphic = .TRUE.,
  ibrav = 2,
  nbnd = 896,
  occupations = 'smearing',
  smearing = 'gaussian',
  nat = 2,
  ntyp = 2,
/
&ELECTRONS
  conv_thr = 1d-10,
  diago_full_acc = .TRUE.,
  diago_thr_init = 5d-06,
  diagonalization = 'david',
/
&IONS
/
&CELL
/
ATOMIC_SPECIES
  Al  26.9815 Al.upf
  As  74.9216 As.upf
ATOMIC_POSITIONS crystal
  Al 0.00000000 0.00000000 0.00000000
  As 0.74999998 0.75000006 0.74999998
K_POINTS automatic
  1 1 1 0 0 0

