&CONTROL
  calculation = 'nscf',
  disk_io = 'low',
  outdir = 'out/',
  prefix = 'mp-406',
  pseudo_dir = '/usr/scratch4/magr4985/MG/HTDF/pseudo/SG15',
/
&SYSTEM
  celldm(1) = 12.404590569281693,
  degauss = 0.0004593661607577953,
  ecutwfc = 61,
  force_symmorphic = .TRUE.,
  ibrav = 2,
  nbnd = 1200,
  occupations = 'smearing',
  smearing = 'gaussian',
  nat = 2,
  ntyp = 2,
/
&ELECTRONS
  conv_thr = 1d-10,
  diago_full_acc = .TRUE.,
  diago_thr_init = 5d-06,
  diagonalization = 'david',
/
&IONS
/
&CELL
/
ATOMIC_SPECIES
  Cd  112.4110 Cd.upf
  Te  127.6000 Te.upf
ATOMIC_POSITIONS crystal
  Cd 0.00000000 0.00000000 0.00000000
  Te 0.25000002 0.25000010 0.24999994
K_POINTS automatic
  4 4 4 0 0 0

