&CONTROL
  calculation = 'nscf',
  disk_io = 'low',
  outdir = 'out/',
  prefix = 'MoS2',
  pseudo_dir = '/usr/scratch4/magr4985/FGWC/FGWC/pseudo/SG15',
/
&SYSTEM
  celldm(1) = 6.0206007463901035,
  celldm(3) = 7.26772024161217,
  degauss = 0.0004593661607577953,
  ecutwfc = 45,
  force_symmorphic = .TRUE.,
  ibrav = 4,
  nbnd = 1200,
  occupations = 'smearing',
  smearing = 'gaussian',
  nat = 3,
  ntyp = 2,
/
&ELECTRONS
  conv_thr = 1d-10,
  diago_full_acc = .TRUE.,
  diago_thr_init = 5d-06,
  diagonalization = 'david',
/
&IONS
/
&CELL
/
ATOMIC_SPECIES
  Mo  95.9400 Mo.upf
  S  32.0650 S.upf
ATOMIC_POSITIONS crystal
  Mo 0.66666672 0.33333336 0.50000004
  S 0.33333336 0.66666664 0.43248466
  S 0.33333336 0.66666664 0.56751542
K_POINTS automatic
  6 6 1 0 0 0

