&CONTROL
  calculation = 'nscf',
  disk_io = 'low',
  outdir = 'out/',
  prefix = 'mp-2114',
  pseudo_dir = '/usr/scratch4/magr4985/MG/HTDF/pseudo/SG15',
/
&SYSTEM
  celldm(1) = 9.253464539738646,
  degauss = 0.0004593661607577953,
  ecutwfc = 106,
  force_symmorphic = .TRUE.,
  ibrav = 2,
  nbnd = 1200,
  occupations = 'smearing',
  smearing = 'gaussian',
  nat = 2,
  ntyp = 2,
/
&ELECTRONS
  conv_thr = 1d-10,
  diago_full_acc = .TRUE.,
  diago_thr_init = 5d-06,
  diagonalization = 'david',
/
&IONS
/
&CELL
/
ATOMIC_SPECIES
  N  14.0067 N.upf
  Y  88.9059 Y.upf
ATOMIC_POSITIONS crystal
  Y 0.00000000 0.00000000 0.00000000
  N 0.49999996 0.50000004 0.49999996
K_POINTS automatic
  4 4 4 0 0 0

