&CONTROL
  calculation = 'nscf',
  disk_io = 'low',
  outdir = 'out/',
  prefix = 'mp-1190',
  pseudo_dir = '/usr/scratch4/magr4985/MG/HTDF/pseudo/SG15',
/
&SYSTEM
  celldm(1) = 10.705080560616855,
  degauss = 0.0004593661607577953,
  ecutwfc = 68,
  force_symmorphic = .TRUE.,
  ibrav = 2,
  nbnd = 1200,
  occupations = 'smearing',
  smearing = 'gaussian',
  nat = 2,
  ntyp = 2,
/
&ELECTRONS
  conv_thr = 1d-10,
  diago_full_acc = .TRUE.,
  diago_thr_init = 5d-06,
  diagonalization = 'david',
/
&IONS
/
&CELL
/
ATOMIC_SPECIES
  Se  78.9600 Se.upf
  Zn  65.4090 Zn.upf
ATOMIC_POSITIONS crystal
  Zn 0.00000000 0.00000000 0.00000000
  Se 0.74999998 0.75000006 0.74999998
K_POINTS automatic
  8 8 8 0 0 0

