&CONTROL
  calculation = 'nscf',
  disk_io = 'low',
  outdir = 'out/',
  prefix = 'mp-24084',
  pseudo_dir = '/usr/scratch4/magr4985/MG/HTDF/pseudo/SG15',
/
&SYSTEM
  celldm(1) = 10.719466133020124,
  degauss = 0.0004593661607577953,
  ecutwfc = 80,
  force_symmorphic = .TRUE.,
  ibrav = 2,
  nbnd = 1200,
  occupations = 'smearing',
  smearing = 'gaussian',
  nat = 2,
  ntyp = 2,
/
&ELECTRONS
  conv_thr = 1d-10,
  diago_full_acc = .TRUE.,
  diago_thr_init = 5d-06,
  diagonalization = 'david',
/
&IONS
/
&CELL
/
ATOMIC_SPECIES
  H  1.0079 H.upf
  K  39.0983 K.upf
ATOMIC_POSITIONS crystal
  K 0.00000000 0.00000000 0.00000000
  H 0.49999996 0.50000004 0.49999996
K_POINTS automatic
  1 1 1 0 0 0

