&CONTROL
  calculation = 'scf',
  disk_io = 'medium',
  outdir = 'out/',
  prefix = 'mp-2490',
  pseudo_dir = '/usr/scratch4/magr4985/MG/HTDF/pseudo/SG15',
/
&SYSTEM
  celldm(1) = 10.302077421529058,
  degauss = 0.0004593661607577953,
  ecutwfc = 65,
  force_symmorphic = .TRUE.,
  ibrav = 2,
  nbnd = 18,
  occupations = 'smearing',
  smearing = 'gaussian',
  nat = 2,
  ntyp = 2,
/
&ELECTRONS
  conv_thr = 1d-10,
  diagonalization = 'david',
/
&IONS
/
&CELL
/
ATOMIC_SPECIES
  Ga  69.7230 Ga.upf
  P  30.9738 P.upf
ATOMIC_POSITIONS crystal
  Ga 0.00000000 0.00000000 0.00000000
  P 0.25000002 0.25000010 0.24999994
K_POINTS automatic
  14 14 14 0 0 0

