&CONTROL
  calculation = 'scf',
  disk_io = 'low',
  outdir = 'out/',
  prefix = 'BN',
  pseudo_dir = '/usr/scratch4/magr4985/FGWC/FGWC/pseudo/SG15',
/
&SYSTEM
  celldm(1) = 4.715999637752748,
  celldm(3) = 6.811989879869871,
  degauss = 0.0018374646430311813,
  ecutwfc = 62,
  force_symmorphic = .FALSE.,
  ibrav = 4,
  nbnd = 8,
  occupations = 'smearing',
  smearing = 'gaussian',
  nat = 2,
  ntyp = 2,
/
&ELECTRONS
  conv_thr = 1d-10,
  diagonalization = 'david',
/
&IONS
/
&CELL
/
ATOMIC_SPECIES
  B  10.8110 B.upf
  N  14.0067 N.upf
ATOMIC_POSITIONS crystal
  B 0.33333336 0.66666664 0.00000000
  N 0.66666672 0.33333336 0.00000000
K_POINTS automatic
  22 22 1 0 0 0

