&CONTROL
  calculation = 'nscf',
  disk_io = 'low',
  outdir = 'out/',
  prefix = 'mp-1087',
  pseudo_dir = '/usr/scratch4/magr4985/MG/HTDF/pseudo/SG15',
/
&SYSTEM
  celldm(1) = 11.429126041892246,
  degauss = 0.0004593661607577953,
  ecutwfc = 53,
  force_symmorphic = .TRUE.,
  ibrav = 2,
  nbnd = 880,
  occupations = 'smearing',
  smearing = 'gaussian',
  nat = 2,
  ntyp = 2,
/
&ELECTRONS
  conv_thr = 1d-10,
  diago_full_acc = .TRUE.,
  diago_thr_init = 5d-06,
  diagonalization = 'david',
/
&IONS
/
&CELL
/
ATOMIC_SPECIES
  S  32.0650 S.upf
  Sr  87.6200 Sr.upf
ATOMIC_POSITIONS crystal
  Sr 0.00000000 0.00000000 0.00000000
  S 0.49999996 0.50000004 0.49999996
K_POINTS automatic
  1 1 1 0 0 0

