&CONTROL
  calculation = 'nscf',
  disk_io = 'low',
  outdir = 'out/',
  prefix = 'mp-984',
  pseudo_dir = '/usr/scratch4/magr4985/MG/HTDF/pseudo/SG15',
/
&SYSTEM
  celldm(1) = 4.747800917117752,
  celldm(3) = 3.06765578962112,
  degauss = 0.0004593661607577953,
  ecutwfc = 95,
  force_symmorphic = .TRUE.,
  ibrav = 4,
  nbnd = 1304,
  occupations = 'smearing',
  smearing = 'gaussian',
  nat = 4,
  ntyp = 2,
/
&ELECTRONS
  conv_thr = 1d-10,
  diago_full_acc = .TRUE.,
  diago_thr_init = 5d-06,
  diagonalization = 'david',
/
&IONS
/
&CELL
/
ATOMIC_SPECIES
  B  10.8110 B.upf
  N  14.0067 N.upf
ATOMIC_POSITIONS crystal
  B 0.66666672 0.33333336 0.25000002
  B 0.33333336 0.66666664 0.75000006
  N 0.66666672 0.33333336 0.75000006
  N 0.33333336 0.66666664 0.25000002
K_POINTS automatic
  8 8 2 0 0 0

