&CONTROL
  calculation = 'scf',
  disk_io = 'medium',
  outdir = 'out/',
  prefix = 'mp-2534',
  pseudo_dir = '/usr/scratch4/magr4985/MG/HTDF/pseudo/SG15',
/
&SYSTEM
  celldm(1) = 10.866268552014064,
  degauss = 0.0004593661607577953,
  ecutwfc = 62,
  force_symmorphic = .TRUE.,
  ibrav = 2,
  nbnd = 18,
  occupations = 'smearing',
  smearing = 'gaussian',
  nat = 2,
  ntyp = 2,
/
&ELECTRONS
  conv_thr = 1d-10,
  diagonalization = 'david',
/
&IONS
/
&CELL
/
ATOMIC_SPECIES
  As  74.9216 As.upf
  Ga  69.7230 Ga.upf
ATOMIC_POSITIONS crystal
  Ga 0.00000000 0.00000000 0.00000000
  As 0.25000002 0.25000010 0.24999994
K_POINTS automatic
  12 12 12 0 0 0

