&CONTROL
  calculation = 'scf',
  disk_io = 'medium',
  outdir = 'out/',
  prefix = 'mp-315',
  pseudo_dir = '/usr/scratch4/magr4985/MG/HTDF/pseudo/SG15',
/
&SYSTEM
  celldm(1) = 11.179424050966873,
  degauss = 0.0004593661607577953,
  ecutwfc = 67,
  force_symmorphic = .TRUE.,
  ibrav = 2,
  nbnd = 28,
  occupations = 'smearing',
  smearing = 'gaussian',
  nat = 3,
  ntyp = 2,
/
&ELECTRONS
  conv_thr = 1d-10,
  diagonalization = 'david',
/
&IONS
/
&CELL
/
ATOMIC_SPECIES
  F  18.9984 F.upf
  Pb  207.2000 Pb.upf
ATOMIC_POSITIONS crystal
  Pb 0.00000000 0.00000000 0.00000000
  F 0.25000002 0.25000010 0.24999994
  F 0.74999998 0.75000013 0.74999998
K_POINTS automatic
  10 10 10 0 0 0

