&CONTROL
  calculation = 'nscf',
  disk_io = 'low',
  outdir = 'out/',
  prefix = 'CdI2',
  pseudo_dir = '/usr/scratch4/magr4985/FGWC/FGWC/pseudo/SG15',
/
&SYSTEM
  celldm(1) = 8.081495910815853,
  celldm(3) = 5.491081629508996,
  degauss = 0.0004593661607577953,
  ecutwfc = 56,
  force_symmorphic = .TRUE.,
  ibrav = 4,
  nbnd = 1216,
  occupations = 'smearing',
  smearing = 'gaussian',
  nat = 3,
  ntyp = 2,
/
&ELECTRONS
  conv_thr = 1d-10,
  diago_full_acc = .TRUE.,
  diago_thr_init = 5d-06,
  diagonalization = 'david',
/
&IONS
/
&CELL
/
ATOMIC_SPECIES
  Cd  112.4110 Cd.upf
  I  126.9045 I.upf
ATOMIC_POSITIONS crystal
  Cd 0.00000000 0.00000000 0.50000004
  I 0.66666672 0.33333336 0.57469783
  I 0.33333336 0.66666664 0.42530224
K_POINTS automatic
  8 8 1 0 0 0

