&CONTROL
  calculation = 'nscf',
  disk_io = 'low',
  outdir = 'out/',
  prefix = 'mp-2133',
  pseudo_dir = '/usr/scratch4/magr4985/MG/HTDF/pseudo/SG15',
/
&SYSTEM
  celldm(1) = 6.117706363174307,
  celldm(3) = 1.6130661340603918,
  degauss = 0.0004593661607577953,
  ecutwfc = 75,
  force_symmorphic = .TRUE.,
  ibrav = 4,
  nbnd = 1200,
  occupations = 'smearing',
  smearing = 'gaussian',
  nat = 4,
  ntyp = 2,
/
&ELECTRONS
  conv_thr = 1d-10,
  diago_full_acc = .TRUE.,
  diago_thr_init = 5d-06,
  diagonalization = 'david',
/
&IONS
/
&CELL
/
ATOMIC_SPECIES
  O  15.9994 O.upf
  Zn  65.4090 Zn.upf
ATOMIC_POSITIONS crystal
  Zn 0.33333336 0.66666664 0.50059174
  Zn 0.66666672 0.33333336 0.00059170
  O 0.33333336 0.66666664 0.87971837
  O 0.66666672 0.33333336 0.37971833
K_POINTS automatic
  1 1 1 0 0 0

