&CONTROL
  calculation = 'nscf',
  disk_io = 'low',
  outdir = 'out/',
  prefix = 'mp-1479',
  pseudo_dir = '/usr/scratch4/magr4985/MG/HTDF/pseudo/SG15',
/
&SYSTEM
  celldm(1) = 8.564511754150136,
  degauss = 0.0004593661607577953,
  ecutwfc = 141,
  force_symmorphic = .TRUE.,
  ibrav = 2,
  nbnd = 1448,
  occupations = 'smearing',
  smearing = 'gaussian',
  nat = 2,
  ntyp = 2,
/
&ELECTRONS
  conv_thr = 1d-10,
  diago_full_acc = .TRUE.,
  diago_thr_init = 5d-06,
  diagonalization = 'david',
/
&IONS
/
&CELL
/
ATOMIC_SPECIES
  B  10.8110 B.upf
  P  30.9738 P.upf
ATOMIC_POSITIONS crystal
  B 0.00000000 0.00000000 0.00000000
  P 0.25000002 0.25000010 0.24999994
K_POINTS automatic
  6 6 6 0 0 0

