&CONTROL
  calculation = 'scf',
  disk_io = 'medium',
  outdir = 'out/',
  prefix = 'mp-22865',
  pseudo_dir = '/usr/scratch4/magr4985/MG/HTDF/pseudo/SG15',
/
&SYSTEM
  celldm(1) = 7.830454441929344,
  degauss = 0.0004593661607577953,
  ecutwfc = 45,
  force_symmorphic = .TRUE.,
  ibrav = 1,
  nbnd = 16,
  occupations = 'smearing',
  smearing = 'gaussian',
  nat = 2,
  ntyp = 2,
/
&ELECTRONS
  conv_thr = 1d-10,
  diagonalization = 'david',
/
&IONS
/
&CELL
/
ATOMIC_SPECIES
  Cl  35.4530 Cl.upf
  Cs  132.9055 Cs.upf
ATOMIC_POSITIONS crystal
  Cs 0.00000000 0.00000000 0.00000000
  Cl 0.50000004 0.50000004 0.50000004
K_POINTS automatic
  12 12 12 0 0 0

