&CONTROL
  calculation = 'nscf',
  disk_io = 'low',
  outdir = 'out/',
  prefix = 'mp-682',
  pseudo_dir = '/usr/scratch4/magr4985/MG/HTDF/pseudo/SG15',
/
&SYSTEM
  celldm(1) = 8.639427851613087,
  degauss = 0.0004593661607577953,
  ecutwfc = 121,
  force_symmorphic = .TRUE.,
  ibrav = 2,
  nbnd = 1200,
  occupations = 'smearing',
  smearing = 'gaussian',
  nat = 2,
  ntyp = 2,
/
&ELECTRONS
  conv_thr = 1d-10,
  diago_full_acc = .TRUE.,
  diago_thr_init = 5d-06,
  diagonalization = 'david',
/
&IONS
/
&CELL
/
ATOMIC_SPECIES
  F  18.9984 F.upf
  Na  22.9898 Na.upf
ATOMIC_POSITIONS crystal
  Na 0.00000000 0.00000000 0.00000000
  F 0.49999996 0.50000004 0.49999996
K_POINTS automatic
  2 2 2 0 0 0

