&CONTROL
  calculation = 'scf',
  disk_io = 'medium',
  outdir = 'out/',
  prefix = 'mp-12558',
  pseudo_dir = '/usr/scratch4/magr4985/MG/HTDF/pseudo/SG15',
/
&SYSTEM
  celldm(1) = 11.633547325643912,
  degauss = 0.0004593661607577953,
  ecutwfc = 69,
  force_symmorphic = .TRUE.,
  ibrav = 2,
  nbnd = 18,
  occupations = 'smearing',
  smearing = 'gaussian',
  nat = 3,
  ntyp = 3,
/
&ELECTRONS
  conv_thr = 1d-10,
  diagonalization = 'david',
/
&IONS
/
&CELL
/
ATOMIC_SPECIES
  As  74.9216 As.upf
  Li  6.9410 Li.upf
  Mg  24.3050 Mg.upf
ATOMIC_POSITIONS crystal
  Li 0.00000000 0.00000000 0.00000000
  Mg 0.49999996 0.50000004 0.49999996
  As 0.25000002 0.25000010 0.24999994
K_POINTS automatic
  10 10 10 0 0 0

